LibMLKEM/why3-cvc5/mlkem.adb_1482_22_overflow_check_1.smt2
;; produced by cvc5.drv ;;
(set-logic ALL)
(set-info :smt-lib-version 2.6)
;;; generated by SMT-LIB2 driver
;;; SMT-LIB2 driver: bit-vectors, common part
;;; SMT-LIB2: integer arithmetic
(define-fun __cdiv ((x Int) (y Int)) Int (ite (>= x 0) (div x y) (- (div (- x) y))))
(define-fun __cmod ((x Int) (y Int)) Int (ite (>= x 0) (mod x y) (- (mod (- x) y))))
;; "pow2"
(declare-fun pow2 (Int) Int)

(declare-const two_power_size_minus_one Int)

;; "two_power_size_minus_one_val"
(assert (= two_power_size_minus_one (pow2 (- 16 1))))

;; "min"
(define-fun min ((x Int) (y Int)) Int
  (ite (<= x y) x y))

;; "max"
(define-fun max ((x Int) (y Int)) Int
  (ite (<= x y) y x))

;; "Min_r"
(assert (forall ((x Int) (y Int)) (=> (<= y x) (= (min x y) y))))

;; "Max_l"
(assert (forall ((x Int) (y Int)) (=> (<= y x) (= (max x y) x))))

;; "Min_comm"
(assert (forall ((x Int) (y Int)) (= (min x y) (min y x))))

;; "Max_comm"
(assert (forall ((x Int) (y Int)) (= (max x y) (max y x))))

;; "Min_assoc"
(assert
  (forall ((x Int) (y Int) (z Int)) (= (min (min x y) z) (min x (min y z)))))

;; "Max_assoc"
(assert
  (forall ((x Int) (y Int) (z Int)) (= (max (max x y) z) (max x (max y z)))))

;; "mod"
(define-fun mod1 ((x Int) (y Int)) Int
  (ite (<= 0 y) (mod x y) (- (mod (- x) y))))

(declare-sort t 0)

;; "in_range"
(define-fun in_range ((x (_ BitVec 16))) Bool
  (and (bvule #x0000 x) (bvule x #x0D00)))

;; "osubtract"
(declare-fun osubtract ((_ BitVec 16)
  (_ BitVec 16)) (_ BitVec 16))

;; "osubtract__function_guard"
(declare-fun osubtract__function_guard ((_ BitVec 16)
  (_ BitVec 16)
  (_ BitVec 16)) Bool)

;; "omultiply"
(declare-fun omultiply ((_ BitVec 16)
  (_ BitVec 16)) (_ BitVec 16))

;; "omultiply__function_guard"
(declare-fun omultiply__function_guard ((_ BitVec 16)
  (_ BitVec 16)
  (_ BitVec 16)) Bool)

;; "to_rep"
(declare-fun to_rep (t) (_ BitVec 16))

;; "of_rep"
(declare-fun of_rep ((_ BitVec 16)) t)

;; "inversion_axiom"
(assert
  (forall ((x t)) (! (= (of_rep (to_rep x)) x) :pattern ((to_rep x)) )))

;; "range_axiom"
(assert (forall ((x t)) (! (in_range (to_rep x)) :pattern ((to_rep x)) )))

;; "coerce_axiom"
(assert
  (forall ((x (_ BitVec 16)))
    (! (let ((y (bvurem x #x0D01)))
         (=> (in_range y) (= (to_rep (of_rep x)) y))) :pattern ((to_rep
                                                                  (of_rep x))) )))

(declare-sort map1 0)

;; "has_bounds"
(declare-fun has_bounds (map1
  Int
  Int) Bool)

;; "get"
(declare-fun get (map1
  Int) t)

(declare-const zeta (_ BitVec 16))

(declare-const start Int)

(declare-const r199b Int)

;; "in_range"
(define-fun in_range1 ((x Int)) Bool
  (and (<= (- 2147483648) x) (<= x 2147483647)))

;; "in_range"
(define-fun in_range2 ((x Int)) Bool
  (and (<= 0 x) (<= x 255)))

;; "power"
(declare-fun power (Int
  Int) Int)

;; "Power_0"
(assert (forall ((x Int)) (= (power x 0) 1)))

;; "Power_s"
(assert
  (forall ((x Int) (n Int))
    (=> (<= 0 n) (= (power x (+ n 1)) (* x (power x n))))))

;; "Power_s_alt"
(assert
  (forall ((x Int) (n Int))
    (=> (< 0 n) (= (power x n) (* x (power x (- n 1)))))))

;; "Power_1"
(assert (forall ((x Int)) (= (power x 1) x)))

;; "Power_sum"
(assert
  (forall ((x Int) (n Int) (m Int))
    (=>
      (<= 0 n)
      (=> (<= 0 m) (= (power x (+ n m)) (* (power x n) (power x m)))))))

;; "Power_mult"
(assert
  (forall ((x Int) (n Int) (m Int))
    (=> (<= 0 n) (=> (<= 0 m) (= (power x (* n m)) (power (power x n) m))))))

;; "Power_comm1"
(assert
  (forall ((x Int) (y Int))
    (=>
      (= (* x y) (* y x))
      (forall ((n Int))
        (=> (<= 0 n) (= (* (power x n) y) (* y (power x n))))))))

;; "Power_comm2"
(assert
  (forall ((x Int) (y Int))
    (=>
      (= (* x y) (* y x))
      (forall ((n Int))
        (=> (<= 0 n) (= (power (* x y) n) (* (power x n) (power y n))))))))

;; "Power_non_neg"
(assert
  (forall ((x Int) (y Int)) (=> (and (<= 0 x) (<= 0 y)) (<= 0 (power x y)))))

;; "Power_pos"
(assert
  (forall ((x Int) (y Int)) (=> (and (< 0 x) (<= 0 y)) (< 0 (power x y)))))

;; "Power_monotonic"
(assert
  (forall ((x Int) (n Int) (m Int))
    (=> (and (< 0 x) (and (<= 0 n) (<= n m))) (<= (power x n) (power x m)))))

;; "in_range"
(define-fun in_range3 ((x Int)) Bool
  (and (<= 2 x) (<= x 128)))

;; "dynamic_invariant"
(define-fun dynamic_invariant ((temp___expr_1195 Int) (temp___is_init_1191 Bool) (temp___skip_constant_1192 Bool) (temp___do_toplevel_1193 Bool) (temp___do_typ_inv_1194 Bool)) Bool
  (and
    (in_range3 temp___expr_1195)
    (=>
      (= temp___is_init_1191 true)
      (=>
        (= temp___do_toplevel_1193 true)
        (exists ((i Int))
          (and
            (and (<= 1 i) (<= i 7))
            (= temp___expr_1195 (let ((temp___1198 i))
                                  (let ((temp___1197 2))
                                    (power temp___1197 temp___1198))))))))))

;; Goal "def'vc"
;; File "mlkem.adb", line 1470, characters 0-0
(assert
  (not
  (forall ((f_hat map1) (len Int) (t1 (_ BitVec 16)))
    (=>
      (has_bounds f_hat 0 255)
      (=>
        (dynamic_invariant len true false true true)
        (=>
          (in_range zeta)
          (=>
            (in_range2 start)
            (=>
              (and (<= start 252) (<= (+ start (* 2 len)) 256))
              (=>
                (in_range t1)
                (=>
                  (= (+ start (- len 1)) r199b)
                  (=>
                    (in_range1 r199b)
                    (let ((temp___4926 start))
                      (forall ((j Int))
                        (=>
                          (= j temp___4926)
                          (=>
                            (= (and (ite (<= temp___4926 j) true false) 
                            (ite (<= j r199b)
                              true
                              false)) true)
                            (forall ((f_hat1 map1) (t2 (_ BitVec 16)) (j1 Int))
                              (=>
                                (= (and (ite (and
                                               (in_range t2)
                                               (has_bounds f_hat1 0 255))
                                          true
                                          false) (ite (and
                                                        (<= start j1)
                                                        (<= j1 r199b))
                                                   true
                                                   false)) true)
                                (let ((o (+ j1 len)))
                                  (=>
                                    (in_range1 o)
                                    (=>
                                      (and (<= 0 o) (<= o 255))
                                      (forall ((o1 (_ BitVec 16)))
                                        (=>
                                          (= (to_rep (get f_hat1 o)) o1)
                                          (let ((o2 zeta))
                                            (let ((o3 (omultiply o2 o1)))
                                              (=>
                                                (and
                                                  (omultiply__function_guard
                                                    o3
                                                    o2
                                                    o1)
                                                  (and
                                                    (in_range o3)
                                                    (= o3 ((_ int2bv 16) 
                                                    (mod1
                                                      (* (bv2nat o2) (bv2nat o1))
                                                      3329)))))
                                                (forall ((t3 (_ BitVec 16)))
                                                  (=>
                                                    (= t3 o3)
                                                    (=>
                                                      (and
                                                        (<= 0 j1)
                                                        (<= j1 255))
                                                      (forall ((o4 (_ BitVec 16)))
                                                        (=>
                                                          (= (to_rep
                                                               (get
                                                                 f_hat1
                                                                 j1)) o4)
                                                          (let ((o5 (osubtract
                                                                    o4
                                                                    t3)))
                                                            (=>
                                                              (and
                                                                (osubtract__function_guard
                                                                  o5
                                                                  o4
                                                                  t3)
                                                                (and
                                                                  (in_range
                                                                    o5)
                                                                  (= o5 ((_ int2bv 16) 
                                                                  (mod1
                                                                    (- (bv2nat o4) (bv2nat t3))
                                                                    3329)))))
                                                              (forall 
                                                                ((o6 t))
                                                                (=>
                                                                  (= 
                                                                  (to_rep
                                                                    o6) o5)
                                                                  (in_range1
                                                                    (+ j1 len))))))))))))))))))))))))))))))))))))

(check-sat)
